(set-info :origin "SVCOMP13 benchmarks generated by Arie Gurfinkel")
(set-info :status sat)
(set-logic HORN)
(declare-fun cp-rel-bb2.i.i23.i.i () Bool)
(declare-fun cp-rel-entry () Bool)
(declare-fun cp-rel-bb1.i.i (Real Real Real Real) Bool)
(assert |cp-rel-entry|)
(assert (forall ((?A Real) (?B Real) (?C Real) (?D Real) (?E Bool) )(let (($x843309 (and |cp-rel-entry| (<= ?D 1.0) (>= ?C 0.0) (<= ?C 0.0) (>= ?B 0.0) (<= ?B 0.0) (>= ?A 1.0) (<= ?A 1.0) (= ?E true) (>= ?D 1.0))))
(=> $x843309 (|cp-rel-bb1.i.i| ?A ?B ?C ?D))))
)
(assert (forall ((?A Real) (?B Real) (?C Real) (?D Real) (?E Real) (?F Real) (?G Real) (?H Real) (?I Bool) (?J Bool) (?K Bool) (?L Bool) (?M Bool) (?N Bool) (?O Real) (?P Real) (?Q Bool) (?R Bool) (?S Bool) (?T Bool) (?U Bool) (?V Bool) (?W Real) (?X Real) (?Y Bool) (?Z Bool) (?A1 Bool) (?B1 Bool) (?C1 Bool) (?D1 Bool) (?E1 Bool) (?F1 Real) (?G1 Bool) (?H1 Bool) (?I1 Bool) (?J1 Bool) (?K1 Bool) (?L1 Bool) (?M1 Real) (?N1 Real) (?O1 Real) (?P1 Real) (?Q1 Bool) (?R1 Bool) (?S1 Bool) (?T1 Bool) (?U1 Bool) (?V1 Bool) (?W1 Bool) (?X1 Real) (?Y1 Real) (?Z1 Bool) (?A2 Bool) (?B2 Real) (?C2 Bool) (?D2 Real) (?E2 Real) (?F2 Bool) (?G2 Real) (?H2 Real) (?I2 Bool) (?J2 Real) (?K2 Bool) (?L2 Bool) (?M2 Bool) (?N2 Bool) (?O2 Bool) (?P2 Bool) (?Q2 Bool) (?R2 Bool) (?S2 Bool) )(let (($x847253 (|cp-rel-bb1.i.i| ?E ?F ?G ?H)))
(let (($x297494 (= ?A2 (and ?L2 ?S2))))
(let (($x302699 (or (not ?I) (and ?J ?K (not ?L)))))
(let (($x466098 (or (not ?I) ?K)))
(let (($x251592 (not ?M)))
(let (($x317867 (or $x251592 (and ?I ?N (<= ?O ?P) (>= ?O ?P)) (and ?J ?Q ?L (<= ?O ?D) (>= ?O ?D)))))
(let (($x262837 (or $x251592 (and ?N (not ?Q)) (and ?Q (not ?N)))))
(let (($x63613 (or (not ?R) (and ?M ?S (not ?T)))))
(let (($x923190 (or (not ?R) ?S)))
(let (($x163048 (not ?U)))
(let (($x570516 (or $x163048 (and ?R ?V (<= ?W ?X) (>= ?W ?X)) (and ?M ?Y ?T (<= ?W ?C) (>= ?W ?C)))))
(let (($x288675 (or $x163048 (and ?V (not ?Y)) (and ?Y (not ?V)))))
(let (($x582527 (or (not ?Z) (and ?U ?A1 ?B1))))
(let (($x341364 (or (not ?Z) ?A1)))
(let (($x365674 (not ?C1)))
(let (($x120532 (or $x365674 (and ?Z ?D1 ?E1 (<= ?F1 ?A) (>= ?F1 ?A)) (and ?U ?G1 (not ?B1) (<= ?F1 1.0) (>= ?F1 1.0)))))
(let (($x283401 (or $x365674 (and ?D1 (not ?G1)) (and ?G1 (not ?D1)))))
(let (($x310194 (or (not ?H1) (and ?C1 ?I1 (not ?J1)))))
(let (($x306928 (or (not ?H1) ?I1)))
(let (($x555305 (>= ?O1 ?O)))
(let (($x78638 (<= ?O1 ?O)))
(let (($x256357 (and ?Z ?R1 (not ?E1) (<= ?M1 0.0) (>= ?M1 0.0) (<= ?N1 0.0) (>= ?N1 0.0) $x78638 $x555305)))
(let (($x135653 (>= ?N1 ?F1)))
(let (($x480250 (<= ?N1 ?F1)))
(let (($x329985 (and ?C1 ?Q1 ?J1 (<= ?M1 ?B) (>= ?M1 ?B) $x480250 $x135653 $x78638 $x555305)))
(let (($x435054 (and ?H1 ?L1 (<= ?M1 ?B) (>= ?M1 ?B) $x480250 $x135653 (<= ?O1 ?P1) (>= ?O1 ?P1))))
(let (($x342538 (not ?K1)))
(let (($x375353 (or $x342538 (and ?L1 (not ?Q1) (not ?R1)) (and ?Q1 (not ?L1) (not ?R1)) (and ?R1 (not ?L1) (not ?Q1)))))
(let (($x819035 (or (not ?S1) (and ?K1 ?T1 ?U1))))
(let (($x425273 (or (not ?S1) ?T1)))
(let (($x387275 (or (not ?V1) (and ?S1 ?W1 (<= ?X1 ?Y1) (>= ?X1 ?Y1)) (and ?K1 ?Z1 (not ?U1) (<= ?X1 ?M1) (>= ?X1 ?M1)))))
(let (($x863079 (or (not ?V1) (and ?W1 (not ?Z1)) (and ?Z1 (not ?W1)))))
(let (($x38643 (= ?V1 true)))
(let (($x238740 (= ?L (= ?B2 0.0))))
(let (($x335617 (= ?D2 (ite ?C2 1.0 0.0))))
(let (($x337062 (= ?T (= ?E2 0.0))))
(let (($x27416 (= ?X (ite ?F2 1.0 0.0))))
(let (($x865331 (= ?B1 (= ?G2 0.0))))
(let (($x313861 (= ?E1 (= ?H2 0.0))))
(let (($x476757 (= ?I2 (not (<= ?O 0.0)))))
(let (($x26329 (= ?J2 (+ (~ 1.0) ?O))))
(let (($x306929 (= ?P1 (ite ?I2 ?J2 ?O))))
(let (($x503656 (= ?K2 (not (= ?N1 0.0)))))
(let (($x209115 (= ?L2 (= ?M1 0.0))))
(let (($x473726 (= ?M2 (not (<= ?O1 1.0)))))
(let (($x435746 (= ?N2 (and ?K2 ?L2))))
(let (($x306812 (= ?U1 (and ?N2 ?M2))))
(let (($x215371 (= ?O2 (= ?W 0.0))))
(let (($x413012 (= ?Y1 (ite ?O2 1.0 ?M1))))
(let (($x841764 (= ?P2 (= ?O1 2.0))))
(let (($x18063 (= ?Q2 (= ?X1 0.0))))
(let (($x251790 (= ?R2 (or ?Q2 ?P2))))
(let (($x461968 (= ?S2 (not ?R2))))
(let (($x408929 (and (|cp-rel-bb1.i.i| ?A ?B ?C ?D) $x461968 $x251790 $x18063 $x841764 $x413012 $x215371 $x306812 $x435746 $x473726 $x209115 $x503656 $x306929 $x26329 $x476757 (= ?J1 (= ?B 0.0)) $x313861 $x865331 $x27416 (= ?F2 (= ?C 0.0)) $x337062 (= ?P (+ ?D2 ?D)) $x335617 (= ?C2 (not (<= 2.0 ?D))) $x238740 (>= ?H ?O1) (<= ?H ?O1) (>= ?G ?W) (<= ?G ?W) (>= ?F ?X1) (<= ?F ?X1) (>= ?E ?N1) (<= ?E ?N1) (not (= ?A2 true)) $x38643 $x863079 $x387275 $x425273 $x819035 $x375353 (or $x342538 $x435054 $x329985 $x256357) $x306928 $x310194 $x283401 $x120532 $x341364 $x582527 $x288675 $x570516 $x923190 $x63613 $x262837 $x317867 $x466098 $x302699 $x297494)))
(=> $x408929 $x847253))))))))))))))))))))))))))))))))))))))))))))))))))))))))
)
(assert (forall ((?A Real) (?B Real) (?C Real) (?D Real) (?E Bool) (?F Bool) (?G Bool) (?H Bool) (?I Bool) (?J Bool) (?K Real) (?L Real) (?M Bool) (?N Bool) (?O Bool) (?P Bool) (?Q Bool) (?R Bool) (?S Real) (?T Real) (?U Bool) (?V Bool) (?W Bool) (?X Bool) (?Y Bool) (?Z Bool) (?A1 Bool) (?B1 Real) (?C1 Bool) (?D1 Bool) (?E1 Bool) (?F1 Bool) (?G1 Bool) (?H1 Bool) (?I1 Real) (?J1 Real) (?K1 Real) (?L1 Real) (?M1 Bool) (?N1 Bool) (?O1 Bool) (?P1 Bool) (?Q1 Bool) (?R1 Bool) (?S1 Bool) (?T1 Real) (?U1 Real) (?V1 Bool) (?W1 Bool) (?X1 Real) (?Y1 Bool) (?Z1 Real) (?A2 Real) (?B2 Bool) (?C2 Real) (?D2 Real) (?E2 Bool) (?F2 Real) (?G2 Bool) (?H2 Bool) (?I2 Bool) (?J2 Bool) (?K2 Bool) (?L2 Bool) (?M2 Bool) (?N2 Bool) (?O2 Bool) )(let (($x297494 (= ?W1 (and ?H2 ?O2))))
(let (($x302699 (or (not ?E) (and ?F ?G (not ?H)))))
(let (($x466098 (or (not ?E) ?G)))
(let (($x251592 (not ?I)))
(let (($x638816 (or $x251592 (and ?E ?J (<= ?K ?L) (>= ?K ?L)) (and ?F ?M ?H (<= ?K ?D) (>= ?K ?D)))))
(let (($x262837 (or $x251592 (and ?J (not ?M)) (and ?M (not ?J)))))
(let (($x63613 (or (not ?N) (and ?I ?O (not ?P)))))
(let (($x923190 (or (not ?N) ?O)))
(let (($x163048 (not ?Q)))
(let (($x181325 (or $x163048 (and ?N ?R (<= ?S ?T) (>= ?S ?T)) (and ?I ?U ?P (<= ?S ?C) (>= ?S ?C)))))
(let (($x288675 (or $x163048 (and ?R (not ?U)) (and ?U (not ?R)))))
(let (($x582527 (or (not ?V) (and ?Q ?W ?X))))
(let (($x341364 (or (not ?V) ?W)))
(let (($x365674 (not ?Y)))
(let (($x621567 (or $x365674 (and ?V ?Z ?A1 (<= ?B1 ?A) (>= ?B1 ?A)) (and ?Q ?C1 (not ?X) (<= ?B1 1.0) (>= ?B1 1.0)))))
(let (($x283401 (or $x365674 (and ?Z (not ?C1)) (and ?C1 (not ?Z)))))
(let (($x310194 (or (not ?D1) (and ?Y ?E1 (not ?F1)))))
(let (($x306928 (or (not ?D1) ?E1)))
(let (($x555305 (>= ?K1 ?K)))
(let (($x78638 (<= ?K1 ?K)))
(let (($x256357 (and ?V ?N1 (not ?A1) (<= ?I1 0.0) (>= ?I1 0.0) (<= ?J1 0.0) (>= ?J1 0.0) $x78638 $x555305)))
(let (($x135653 (>= ?J1 ?B1)))
(let (($x480250 (<= ?J1 ?B1)))
(let (($x852810 (and ?Y ?M1 ?F1 (<= ?I1 ?B) (>= ?I1 ?B) $x480250 $x135653 $x78638 $x555305)))
(let (($x299908 (and ?D1 ?H1 (<= ?I1 ?B) (>= ?I1 ?B) $x480250 $x135653 (<= ?K1 ?L1) (>= ?K1 ?L1))))
(let (($x342538 (not ?G1)))
(let (($x375353 (or $x342538 (and ?H1 (not ?M1) (not ?N1)) (and ?M1 (not ?H1) (not ?N1)) (and ?N1 (not ?H1) (not ?M1)))))
(let (($x819035 (or (not ?O1) (and ?G1 ?P1 ?Q1))))
(let (($x425273 (or (not ?O1) ?P1)))
(let (($x387275 (or (not ?R1) (and ?O1 ?S1 (<= ?T1 ?U1) (>= ?T1 ?U1)) (and ?G1 ?V1 (not ?Q1) (<= ?T1 ?I1) (>= ?T1 ?I1)))))
(let (($x863079 (or (not ?R1) (and ?S1 (not ?V1)) (and ?V1 (not ?S1)))))
(let (($x38643 (= ?R1 true)))
(let (($x203779 (= ?W1 true)))
(let (($x238740 (= ?H (= ?X1 0.0))))
(let (($x335617 (= ?Z1 (ite ?Y1 1.0 0.0))))
(let (($x337062 (= ?P (= ?A2 0.0))))
(let (($x27416 (= ?T (ite ?B2 1.0 0.0))))
(let (($x865331 (= ?X (= ?C2 0.0))))
(let (($x313861 (= ?A1 (= ?D2 0.0))))
(let (($x476757 (= ?E2 (not (<= ?K 0.0)))))
(let (($x26329 (= ?F2 (+ (~ 1.0) ?K))))
(let (($x306929 (= ?L1 (ite ?E2 ?F2 ?K))))
(let (($x503656 (= ?G2 (not (= ?J1 0.0)))))
(let (($x209115 (= ?H2 (= ?I1 0.0))))
(let (($x473726 (= ?I2 (not (<= ?K1 1.0)))))
(let (($x435746 (= ?J2 (and ?G2 ?H2))))
(let (($x306812 (= ?Q1 (and ?J2 ?I2))))
(let (($x215371 (= ?K2 (= ?S 0.0))))
(let (($x413012 (= ?U1 (ite ?K2 1.0 ?I1))))
(let (($x841764 (= ?L2 (= ?K1 2.0))))
(let (($x18063 (= ?M2 (= ?T1 0.0))))
(let (($x251790 (= ?N2 (or ?M2 ?L2))))
(let (($x461968 (= ?O2 (not ?N2))))
(let (($x847253 (|cp-rel-bb1.i.i| ?A ?B ?C ?D)))
(let (($x266625 (and $x847253 $x461968 $x251790 $x18063 $x841764 $x413012 $x215371 $x306812 $x435746 $x473726 $x209115 $x503656 $x306929 $x26329 $x476757 (= ?F1 (= ?B 0.0)) $x313861 $x865331 $x27416 (= ?B2 (= ?C 0.0)) $x337062 (= ?L (+ ?Z1 ?D)) $x335617 (= ?Y1 (not (<= 2.0 ?D))) $x238740 $x203779 $x38643 $x863079 $x387275 $x425273 $x819035 $x375353 (or $x342538 $x299908 $x852810 $x256357) $x306928 $x310194 $x283401 $x621567 $x341364 $x582527 $x288675 $x181325 $x923190 $x63613 $x262837 $x638816 $x466098 $x302699 $x297494)))
(=> $x266625 |cp-rel-bb2.i.i23.i.i|)))))))))))))))))))))))))))))))))))))))))))))))))))))))))
)
(assert (not cp-rel-bb2.i.i23.i.i))
(check-sat)
